\* Problem: ss2 *\

Minimize
 deadline_not_accomplished: + y(1) + y(2) + y(3) + y(4) + y(5) + y(6)

Subject To
 loop(1,2): + x(1,2) + x(2,1) = 1
 loop(1,3): + x(1,3) + x(3,1) = 1
 loop(1,4): + x(1,4) + x(4,1) = 1
 loop(1,5): + x(1,5) + x(5,1) = 1
 loop(1,6): + x(1,6) + x(6,1) = 1
 loop(2,1): + x(1,2) + x(2,1) = 1
 loop(2,3): + x(2,3) + x(3,2) = 1
 loop(2,4): + x(2,4) + x(4,2) = 1
 loop(2,5): + x(2,5) + x(5,2) = 1
 loop(2,6): + x(2,6) + x(6,2) = 1
 loop(3,1): + x(1,3) + x(3,1) = 1
 loop(3,2): + x(2,3) + x(3,2) = 1
 loop(3,4): + x(3,4) + x(4,3) = 1
 loop(3,5): + x(3,5) + x(5,3) = 1
 loop(3,6): + x(3,6) + x(6,3) = 1
 loop(4,1): + x(1,4) + x(4,1) = 1
 loop(4,2): + x(2,4) + x(4,2) = 1
 loop(4,3): + x(3,4) + x(4,3) = 1
 loop(4,5): + x(4,5) + x(5,4) = 1
 loop(4,6): + x(4,6) + x(6,4) = 1
 loop(5,1): + x(1,5) + x(5,1) = 1
 loop(5,2): + x(2,5) + x(5,2) = 1
 loop(5,3): + x(3,5) + x(5,3) = 1
 loop(5,4): + x(4,5) + x(5,4) = 1
 loop(5,6): + x(5,6) + x(6,5) = 1
 loop(6,1): + x(1,6) + x(6,1) = 1
 loop(6,2): + x(2,6) + x(6,2) = 1
 loop(6,3): + x(3,6) + x(6,3) = 1
 loop(6,4): + x(4,6) + x(6,4) = 1
 loop(6,5): + x(5,6) + x(6,5) = 1
 order(1,2): + x(1,2) = 1
 order(1,3): + x(1,3) = 1
 order(2,4): + x(2,4) = 1
 order(3,4): + x(3,4) = 1
 order(4,5): + x(4,5) = 1
 order(5,6): + x(5,6) = 1
 min_end(1): - E(1) <= -1
 min_end(2): - E(2) <= -1
 min_end(3): - E(3) <= -1
 min_end(4): - E(4) <= -2
 min_end(5): - E(5) <= -1
 min_end(6): - E(6) <= -8
 ending(1): + x(2,1) + x(3,1) + 2 x(4,1) + x(5,1) + 8 x(6,1) - 50 y(1)
 <= -0
 ending(2): + x(1,2) + x(3,2) + 2 x(4,2) + x(5,2) + 8 x(6,2) - 50 y(2)
 <= 3
 ending(3): + x(1,3) + x(2,3) + 2 x(4,3) + x(5,3) + 8 x(6,3) - 50 y(3)
 <= 1
 ending(4): + x(1,4) + x(2,4) + x(3,4) + x(5,4) + 8 x(6,4) - 50 y(4)
 <= 8
 ending(5): + x(1,5) + x(2,5) + x(3,5) + 2 x(4,5) + 8 x(6,5) - 50 y(5)
 <= 9
 ending(6): + x(1,6) + x(2,6) + x(3,6) + 2 x(4,6) + x(5,6) - 50 y(6)
 <= -0

Bounds
 0 <= x(1,2) <= 1
 0 <= x(2,1) <= 1
 0 <= x(1,3) <= 1
 0 <= x(3,1) <= 1
 0 <= x(1,4) <= 1
 0 <= x(4,1) <= 1
 0 <= x(1,5) <= 1
 0 <= x(5,1) <= 1
 0 <= x(1,6) <= 1
 0 <= x(6,1) <= 1
 0 <= x(2,3) <= 1
 0 <= x(3,2) <= 1
 0 <= x(2,4) <= 1
 0 <= x(4,2) <= 1
 0 <= x(2,5) <= 1
 0 <= x(5,2) <= 1
 0 <= x(2,6) <= 1
 0 <= x(6,2) <= 1
 0 <= x(3,4) <= 1
 0 <= x(4,3) <= 1
 0 <= x(3,5) <= 1
 0 <= x(5,3) <= 1
 0 <= x(3,6) <= 1
 0 <= x(6,3) <= 1
 0 <= x(4,5) <= 1
 0 <= x(5,4) <= 1
 0 <= x(4,6) <= 1
 0 <= x(6,4) <= 1
 0 <= x(5,6) <= 1
 0 <= x(6,5) <= 1
 0 <= y(1) <= 1
 0 <= y(2) <= 1
 0 <= y(3) <= 1
 0 <= y(4) <= 1
 0 <= y(5) <= 1
 0 <= y(6) <= 1

Generals
 x(1,2)
 x(2,1)
 x(1,3)
 x(3,1)
 x(1,4)
 x(4,1)
 x(1,5)
 x(5,1)
 x(1,6)
 x(6,1)
 x(2,3)
 x(3,2)
 x(2,4)
 x(4,2)
 x(2,5)
 x(5,2)
 x(2,6)
 x(6,2)
 x(3,4)
 x(4,3)
 x(3,5)
 x(5,3)
 x(3,6)
 x(6,3)
 x(4,5)
 x(5,4)
 x(4,6)
 x(6,4)
 x(5,6)
 x(6,5)
 E(1)
 E(2)
 E(3)
 E(4)
 E(5)
 E(6)
 y(1)
 y(2)
 y(3)
 y(4)
 y(5)
 y(6)

End
